c   #vars: 121   #clauses: 562   #literals: 1558
c 
p cnf 121 562
-1 -2 0
-3 -4 0
-5 -6 0
-7 -8 0
-9 -10 0
12 24 25 -89 0
13 14 23 -66 0
-13 -14 0
-15 -16 0
-17 -18 0
-19 -20 0
-21 -22 0
40 -71 99 100 0
-24 -25 0
41 42 44 45 0
41 42 103 104 0
-26 -27 0
-28 -29 0
-30 -31 0
-32 -33 0
-34 -35 0
-36 -37 0
-38 -39 0
1 2 43 -114 0
-41 -42 0
-26 36 37 52 0
-44 -45 0
-46 -47 0
41 42 88 -101 0
-48 -49 0
-50 -51 0
-50 55 99 100 0
-53 -54 0
7 8 -46 68 0
-56 -57 0
-58 -59 0
-60 -61 0
-62 -63 0
12 -24 89 90 0
80 81 84 85 0
-64 -65 0
-66 -67 0
-60 69 101 102 0
9 10 -43 78 0
-70 -71 0
-72 -73 0
-74 -75 0
-76 -77 0
56 57 -60 79 0
-19 -20 28 29 0
38 39 74 75 0
28 29 74 75 0
84 85 103 104 0
-80 -81 0
-82 -83 0
-84 -85 0
-86 -87 0
-89 -90 0
-91 -92 0
-93 -94 0
-95 -96 0
5 6 15 16 0
-97 -98 0
70 71 112 113 0
-99 -100 0
13 14 103 104 0
-101 -102 0
-103 -104 0
-105 -106 0
-107 -108 0
24 25 109 -112 0
-3 24 25 109 0
-110 -111 0
-112 -113 0
3 4 99 100 0
3 4 19 20 0
-114 -115 0
-116 -117 0
19 20 107 108 0
-118 -119 0
7 8 44 45 0
-120 -121 0
99 100 101 102 0
-1 -32 0
-2 -33 0
53 54 86 87 0
-15 36 37 52 0
-2 -43 0
46 47 107 108 0
-1 -48 0
-2 -49 0
38 39 70 71 0
-1 -110 0
-2 -111 0
70 71 105 106 0
-3 -19 0
-4 -20 0
26 27 80 81 0
-3 -21 0
-4 -22 0
36 37 46 47 0
-3 -28 0
-4 -29 0
62 63 101 102 0
-3 7 8 68 0
-4 -55 0
12 40 -71 -89 0
-3 -58 0
-4 -59 0
-34 69 101 102 0
-4 -68 0
-3 -99 0
-4 -100 0
89 90 114 115 0
44 45 110 111 0
-4 -109 0
21 22 34 35 0
-5 -7 0
-6 -8 0
30 31 93 94 0
-5 -15 0
-6 -16 0
-5 -17 0
-6 -18 0
60 61 70 71 0
-5 -19 0
-6 -20 0
24 25 60 61 0
-5 -48 0
-6 -49 0
38 39 80 81 0
-5 -72 0
-6 -73 0
9 10 -13 23 0
-5 -82 0
-6 -83 0
7 8 17 18 0
-5 -120 0
-6 -121 0
5 6 48 49 0
-7 -17 0
-8 -18 0
-20 43 78 -114 0
-7 -44 0
-8 -45 0
9 10 23 -66 0
34 35 69 -101 0
-8 -68 0
7 8 97 98 0
-7 -97 0
-8 -98 0
13 14 15 16 0
-9 -13 0
-10 -14 0
-12 40 99 100 0
-10 -23 0
62 63 112 113 0
48 49 93 94 0
-9 -41 0
-10 -42 0
41 42 88 -95 0
-9 -74 0
-10 -75 0
60 61 95 96 0
-9 -76 0
-10 -77 0
5 6 17 18 0
-9 -78 0
-36 56 57 79 0
56 57 91 92 0
12 24 25 -40 0
-11 -83 0
9 10 76 77 0
-1 43 114 115 0
-11 -90 0
88 -95 101 102 0
43 -78 114 115 0
-11 -102 0
-12 -25 0
-41 88 95 96 0
1 2 43 -78 0
13 14 70 71 0
-12 -90 0
9 10 74 75 0
-9 13 14 23 0
3 4 -50 55 0
-13 23 66 67 0
62 63 99 100 0
88 101 102 -112 0
-9 23 66 67 0
15 16 56 57 0
-13 -15 0
-14 -16 0
72 73 89 90 0
-13 -17 0
-14 -18 0
-3 109 112 113 0
40 70 71 -100 0
-14 -23 0
15 16 58 59 0
-13 -70 0
-14 -71 0
-13 -103 0
-14 -104 0
58 59 112 113 0
-3 55 99 100 0
-16 -52 0
36 37 64 65 0
-15 -56 0
-16 -57 0
41 42 118 119 0
-15 -58 0
-16 -59 0
30 31 58 59 0
-15 -105 0
-16 -106 0
62 63 103 104 0
-17 -97 0
-18 -98 0
21 22 32 33 0
-19 -30 0
-20 -31 0
-34 60 61 69 0
-19 -36 0
-20 -37 0
66 67 107 108 0
-19 -78 0
36 37 -60 79 0
105 106 118 119 0
-19 -107 0
-20 -108 0
-21 -28 0
-22 -29 0
3 4 -7 68 0
-21 -32 0
-22 -33 0
-21 -34 0
-22 -35 0
-41 88 112 113 0
-21 -91 0
-22 -92 0
84 85 93 94 0
-12 40 70 71 0
-23 -67 0
-10 43 78 -114 0
-24 -60 0
-25 -61 0
3 4 21 22 0
-24 -86 0
-25 -87 0
1 2 110 111 0
-25 -109 0
-41 88 101 102 0
21 22 28 29 0
-26 -48 0
-27 -49 0
5 6 19 20 0
50 51 55 -99 0
-27 -52 0
12 40 -89 -100 0
-26 -56 0
-27 -57 0
86 87 93 94 0
-26 -80 0
-27 -81 0
50 51 62 63 0
-26 -99 0
-27 -100 0
-28 -48 0
-29 -49 0
3 4 55 -99 0
-28 -74 0
-29 -75 0
-30 -34 0
-31 -35 0
53 54 97 98 0
-30 -58 0
-31 -59 0
32 33 80 81 0
-30 -91 0
-31 -92 0
-30 -93 0
-31 -94 0
1 2 32 33 0
-30 -97 0
-31 -98 0
-32 -76 0
-33 -77 0
88 -101 112 113 0
-32 -80 0
-33 -81 0
-32 -84 0
-33 -85 0
99 100 114 115 0
41 42 88 -112 0
76 77 120 121 0
-1 -10 43 78 0
9 10 -20 78 0
-35 -69 0
56 57 84 85 0
-34 -114 0
-35 -115 0
88 95 96 -101 0
-36 -46 0
-37 -47 0
-3 50 51 55 0
-37 -52 0
50 51 89 90 0
-36 -64 0
-37 -65 0
19 20 -28 -29 0
-37 -79 0
53 54 84 85 0
-38 -64 0
-39 -65 0
5 6 120 121 0
-38 -70 0
-39 -71 0
1 2 48 49 0
-38 -74 0
-39 -75 0
5 6 7 8 0
-38 -80 0
-39 -81 0
3 4 28 29 0
-40 -70 0
-36 60 61 79 0
12 -24 40 -71 0
-40 -99 0
-56 60 61 79 0
95 96 118 119 0
-41 -44 0
-42 -45 0
-42 -88 0
-41 -103 0
-42 -104 0
28 29 48 49 0
-41 -105 0
-42 -106 0
26 27 48 49 0
-41 -118 0
-42 -119 0
3 4 -24 109 0
26 27 -36 52 0
36 37 -56 79 0
30 31 34 35 0
-15 26 27 52 0
-43 -115 0
66 67 89 90 0
-44 -72 0
-45 -73 0
11 -82 101 102 0
-44 -110 0
-45 -111 0
19 20 36 37 0
34 35 -60 69 0
-47 -68 0
88 95 96 -112 0
-46 -86 0
-47 -87 0
11 -89 101 102 0
-46 -107 0
-47 -108 0
11 -82 89 90 0
21 22 91 92 0
30 31 91 92 0
11 82 83 -101 0
-1 -20 43 78 0
-48 -93 0
-49 -94 0
-48 -95 0
-49 -96 0
62 63 110 111 0
-7 46 47 68 0
-51 -55 0
112 113 114 115 0
-50 -62 0
-51 -63 0
17 18 97 98 0
-50 -89 0
-51 -90 0
-9 19 20 -28 -29 0
-50 -107 0
-51 -108 0
26 27 56 57 0
-53 -76 0
-54 -77 0
-53 -82 0
-54 -83 0
97 98 120 121 0
-53 -84 0
-54 -85 0
46 47 86 87 0
-53 -86 0
-54 -87 0
72 73 97 98 0
-53 -97 0
-54 -98 0
-3 46 47 68 0
-55 -100 0
88 -95 112 113 0
-9 -19 -20 28 29 0
-57 -79 0
64 65 116 117 0
-56 -84 0
-57 -85 0
38 39 64 65 0
-56 -91 0
-57 -92 0
66 67 91 92 0
-58 -112 0
-59 -113 0
70 71 82 83 0
19 20 -43 78 0
-61 -69 0
-60 -70 0
-61 -71 0
76 77 110 111 0
-61 -79 0
74 75 118 119 0
64 65 105 106 0
11 82 83 -89 0
-60 -95 0
-61 -96 0
53 54 82 83 0
-62 -64 0
-63 -65 0
74 75 97 98 0
-62 -91 0
-63 -92 0
112 113 116 117 0
-62 -99 0
-63 -100 0
13 14 17 18 0
-62 -101 0
-63 -102 0
-62 -103 0
-63 -104 0
114 115 120 121 0
-62 -110 0
-63 -111 0
-62 -112 0
-63 -113 0
15 16 -36 52 0
11 89 90 -101 0
-64 -105 0
-65 -106 0
3 4 109 -112 0
-64 -116 0
-65 -117 0
44 45 72 73 0
-66 -89 0
-67 -90 0
26 27 99 100 0
-66 -91 0
-67 -92 0
3 4 58 59 0
-66 -107 0
-67 -108 0
62 63 91 92 0
-10 19 20 78 0
-69 -102 0
34 35 114 115 0
-70 -82 0
-71 -83 0
76 77 107 108 0
-70 -105 0
-71 -106 0
32 33 84 85 0
-70 -112 0
-71 -113 0
86 87 95 96 0
-72 -89 0
-73 -90 0
15 16 -26 52 0
-72 -97 0
-73 -98 0
32 33 76 77 0
-74 -97 0
-75 -98 0
53 54 76 77 0
-74 -118 0
-75 -119 0
48 49 95 96 0
-76 -107 0
-77 -108 0
82 83 118 119 0
-76 -110 0
-77 -111 0
60 61 69 -101 0
-76 -120 0
-77 -121 0
5 6 72 73 0
-80 -84 0
-81 -85 0
62 63 64 65 0
-82 -118 0
-83 -119 0
84 85 86 87 0
-84 -86 0
-85 -87 0
12 -40 89 90 0
-84 -93 0
-85 -94 0
-84 -103 0
-85 -104 0
89 90 118 119 0
-86 -91 0
-87 -92 0
-86 -93 0
-87 -94 0
41 42 105 106 0
-86 -95 0
-87 -96 0
50 51 107 108 0
-88 -96 0
-88 -102 0
24 25 86 87 0
-88 -113 0
86 87 91 92 0
-89 -114 0
-90 -115 0
19 20 30 31 0
-89 -118 0
-90 -119 0
30 31 97 98 0
-91 -114 0
-92 -115 0
-93 -105 0
-94 -106 0
3 4 -46 68 0
-95 -116 0
-96 -117 0
15 16 105 106 0
-95 -118 0
-96 -119 0
93 94 105 106 0
5 6 82 83 0
-97 -120 0
-98 -121 0
12 -24 40 -100 0
-99 -101 0
-100 -102 0
-24 109 112 113 0
-99 -114 0
-100 -115 0
107 108 116 117 0
-105 -118 0
-106 -119 0
95 96 116 117 0
-107 -116 0
-108 -117 0
91 92 114 115 0
-109 -113 0
-112 -114 0
-113 -115 0
9 10 41 42 0
-112 -116 0
-113 -117 0
9 10 13 14 0
-114 -120 0
-115 -121 0
